c 1 __SELECTED_FEATURE_highWaterSensor
c 2 Root
c 3 __SELECTED_FEATURE_lowWaterSensor
c 4 __SELECTED_FEATURE_methaneQuery
c 5 __SELECTED_FEATURE_stopCommand
c 6 __SELECTED_FEATURE_methaneAlarm
c 7 __SELECTED_FEATURE_startCommand
p cnf 7 7
2 0
-1 2 0
-3 2 0
-4 2 0
-6 2 0
-5 2 0
-7 2 0
